[VALIDATOR STDOUT]
Checking plan: /home/jfan5/Safety-gen/runs/benchmark/optic/ferry_20260129_162355/ferry/optic_results/ferry-l44-c23-s44001.plan
Plan executed successfully - checking goal
Plan valid
Final value: 112 

Successful plans:
Value: 112
 /home/jfan5/Safety-gen/runs/benchmark/optic/ferry_20260129_162355/ferry/optic_results/ferry-l44-c23-s44001.plan 112
